NAME : pr439.117144.tour
COMMENT : Cost = 39067_117144
COMMENT : Found by LKH [Keld Helsgaun] Thu Nov 16 14:48:53 2017
TYPE : TOUR
DIMENSION : 441
TOUR_SECTION
1
52
51
53
189
188
225
231
232
280
285
286
287
340
345
346
348
349
347
288
289
290
291
352
350
351
353
354
355
356
358
359
357
292
293
279
278
277
276
275
274
273
300
299
298
297
296
295
294
339
338
337
336
335
334
333
366
365
364
363
362
361
360
370
369
368
367
378
385
386
387
388
401
400
415
416
431
429
428
418
417
405
404
402
317
318
319
320
321
322
323
324
325
326
327
328
329
331
332
330
304
303
302
301
272
271
270
269
268
305
306
267
266
265
240
239
238
237
236
235
234
233
223
224
190
185
145
148
147
144
146
112
111
110
75
76
77
87
86
78
58
57
79
80
81
82
44
49
3
441
46
45
43
41
40
42
39
38
37
36
35
34
59
60
61
62
63
73
74
109
108
107
106
105
104
113
114
103
115
117
120
101
122
121
119
118
116
142
141
140
139
138
137
136
135
134
163
162
160
161
175
176
177
159
158
157
156
155
154
153
152
143
151
150
184
191
222
221
220
219
218
217
241
242
243
244
245
246
247
248
249
256
257
258
259
260
261
262
263
264
307
308
309
310
311
312
313
314
315
316
254
255
252
253
209
251
250
210
211
212
213
214
215
216
198
197
196
195
194
193
192
183
182
181
180
179
178
199
200
201
202
203
205
204
174
173
172
206
207
208
171
170
168
169
166
164
165
167
133
132
131
130
128
129
127
126
124
123
125
99
98
97
96
95
100
94
93
92
102
91
90
89
88
72
71
70
69
68
18
19
20
67
66
65
24
22
21
23
25
64
26
27
28
29
30
31
32
33
17
16
15
14
13
12
11
10
9
8
7
6
5
4
440
2
50
48
47
56
55
54
187
230
281
282
229
228
283
284
344
343
342
341
373
371
372
383
382
384
394
395
393
397
396
398
399
392
391
381
375
374
376
377
379
380
390
389
419
420
421
414
406
407
413
412
423
422
432
433
430
427
424
426
425
410
411
409
408
403
434
438
437
436
435
439
227
226
186
149
85
84
83
-1
EOF
